c --- [ banner ] -------------------------------------------------------------
c 
c CaDiCaL Radically Simplified CDCL SAT Solver
c Copyright (c) 2016-2021 A. Biere, M. Fleury, N. Froleyks
c 
c Version 1.5.2 a5f15211db36c3956764e18194dd5bd63bf3b5e6
c g++ (GCC) 9.3.0 -Wall -Wextra -O3 -DNDEBUG
c Fri Oct 21 01:27:37 EDT 2022 Linux gra-login3 3.10.0-1160.66.1.el7.x86_64 x86_64
c 
c --- [ limit ] --------------------------------------------------------------
c 
c setting conflict limit to 200000 conflicts (due to '200000')
c 
c --- [ parsing input ] ------------------------------------------------------
c 
c reading DIMACS file from '33.cubes3962.adj'
c opening file to read '33.cubes3962.adj'
c found 'p cnf 6160 1595480' header
c parsed 1595480 clauses in 19.55 seconds process time
c closing file '33.cubes3962.adj'
c after reading 1457566815 bytes 1390.0 MB
c 
c --- [ options ] ------------------------------------------------------------
c 
c all options are set to their default value
c 
c --- [ solving ] ------------------------------------------------------------
c 
c time measured in process time since initialization
c 
c  seconds    reductions  redundant   irredundant
c          MB     restarts       trail       variables
c            level   conflicts       glue         remaining
c 
c * 19.55 1389  0 0   0    0    0  0% 0 1595422 2288 37%
c { 21.09 1451  0 0   0    0    0  0% 0 1595422 2288 37%
c i 24.90 1528 327 0  10   60   53 31% 23 1595422 2287 37%
c i 25.02 1528 299 0  11   66   56 31% 23 1595422 2286 37%
c i 25.85 1536 237 0  18   92   76 30% 24 1595422 2285 37%
c i 26.30 1541 223 0  21  108   87 30% 31 1595422 2284 37%
c i 28.17 1549 191 0  35  155  130 29% 34 1595422 2283 37%
c i 28.58 1550 186 0  38  171  144 29% 38 1595422 2282 37%
c i 28.65 1550 186 0  39  173  145 29% 38 1595422 2281 37%
c - 36.40 1547 151 1  62  301  258 29% 43 557912 2281 37%
c i 37.05 1476 147 1  64  324  279 29% 43 557912 2263 37%
c i 39.37 1479 135 1  80  461  407 29% 46 557912 2262 37%
c i 39.74 1479 135 1  80  475  418 29% 46 557912 2261 37%
c i 40.84 1481 119 1  84  669  596 29% 45 557912 2260 37%
c i 40.84 1481 119 1  84  671  595 29% 45 557912 2259 37%
c i 40.88 1481 117 1  84  700  622 29% 45 557912 2258 37%
c i 41.15 1481 113 1  84  744  658 29% 44 557912 2257 37%
c i 42.59 1482 106 1  87  964  839 29% 44 557912 2256 37%
c i 42.70 1482 104 1  87  998  868 29% 44 557912 2255 37%
c i 42.72 1482 103 1  87 1001  870 29% 44 557912 2254 37%
c 
c  seconds     reductions  redundant   irredundant
c          MB      restarts       trail       variables
c             level   conflicts       glue         remaining
c 
c } 42.72 1482 103 1  87 1001  870 29% 44 557912 2254 37%
c [ 42.72 1482  0 1  87 1001  870  0% 0 557912 2254 37%
c O 42.81 1482 12 1  87 1002  871 19% 1 557912 2254 37%
c - 45.12 1685 37 2  87 1349 1031 32% 30 557657 2254 37%
c i 45.30 1628 37 2  87 1376 1050 32% 30 557657 2253 37%
c i 45.57 1628 37 2  87 1582 1217 32% 31 557657 2252 37%
c i 45.57 1628 37 2  87 1583 1217 32% 30 557657 2251 37%
c i 45.58 1628 37 2  87 1595 1226 32% 31 557657 2250 37%
c i 45.63 1628 38 2  87 1697 1302 32% 31 557657 2249 37%
c i 45.78 1628 37 2  87 1868 1447 32% 30 557657 2248 36%
c - 47.12 1625 34 3  88 2921 1648 31% 29 557639 2248 36%
c ] 47.67 1625 34 3  88 3004 1710 54% 29 557639 2248 36%
c { 47.67 1625 103 3  88 3004 1710 79% 44 557639 2248 36%
c F 47.80 1625 103 3  88 3005 1711 79% 44 557639 2248 36%
c i 48.59 1625 97 3  91 3219 1885 73% 42 557639 2247 36%
c 2 51.48 1625 64 3 102 5005 4049 59% 35 557630 2244 36%
c p 54.77 1625 64 3 102 5005 6052 59% 35 557630 2192 36%
c d 55.48 1625 64 3 102 5005 5917 59% 35 496386 2191 36%
c d 55.82 1625 64 3 102 5005 5917 59% 35 496384 2190 36%
c - 56.45 1550 64 4 102 5016 2364 59% 35 496384 2190 36%
c 
c  seconds    reductions  redundant   irredundant
c          MB     restarts       trail       variables
c            level   conflicts       glue         remaining
c 
c # 57.45 1550 56 4 102 6008 3071 57% 33 496384 2190 36%
c } 58.29 1550 51 4 102 7005 3852 55% 31 496384 2190 36%
c [ 58.29 1550 34 4 102 7005 3852 54% 29 496384 2190 36%
c - 58.73 1344 33 5 103 7560 2991 49% 28 496384 2190 36%
c I 60.67 1344 29 5 104 10011 4765 50% 25 496384 2190 36%
c - 62.32 1345 31 6 105 10615 3634 49% 25 496384 2190 36%
c - 70.20 1345 33 7 107 14176 4494 47% 26 496384 2190 36%
c ] 73.32 1345 34 7 107 15006 5164 47% 26 496384 2190 36%
c { 73.32 1345 51 7 107 15006 5164 55% 31 496384 2190 36%
c 2 73.44 1345 51 7 107 15006 6072 55% 31 496384 2190 36%
c p 76.38 1345 51 7 107 15006 8050 55% 31 496384 2190 36%
c B 76.74 1345 51 7 107 15013 8057 55% 31 496384 2190 36%
c - 86.46 1345 43 8 153 18251 5424 53% 28 496384 2190 36%
c s 87.48 1345 42 8 153 18893 5888 53% 27 493681 2190 36%
c v 96.47 1345 42 8 153 18893 5888 53% 27 493667 2190 36%
c w 96.79 1345 42 8 153 18893 5886 53% 27 493667 2190 36%
c t 96.80 1345 42 8 153 18893 5884 53% 27 493664 2190 36%
c e 99.07 1346 42 8 153 18893 5397 53% 27 491764 1064 17%
c s 99.23 1346 42 8 153 18893 5397 53% 27 487126 1064 17%
c W 107.00 1346 40 8 204 21018 6943 66% 26 487126 1064 17%
c 
c  seconds     reductions   redundant   irredundant
c           MB     restarts        trail       variables
c             level    conflicts       glue         remaining
c 
c - 108.29 1346 38 9 213 22831 6249 65% 26 487126 1064 17%
c - 134.71 1346 41 10 644 27893 7039 64% 27 487126 1064 17%
c F 134.98 1346 41 10 658 28020 7136 64% 27 487126 1064 17%
c p 140.92 1346 39 10 664 30007 10732 64% 26 487126 1064 17%
c } 141.68 1346 38 10 664 31006 11321 64% 25 487126 1064 17%
c [ 141.68 1346 34 10 664 31006 11321 99% 26 487126 1064 17%
c - 143.26 1346 31 11 664 33462 7410 90% 25 487126 1064 17%
c B 145.23 1346 30 11 667 36021 9072 85% 24 487126 1064 17%
c - 148.88 1346 33 12 669 39537 8182 81% 26 487126 1064 17%
c W 155.29 1346 32 12 671 45023 12000 77% 26 487126 1064 17%
c - 156.60 1346 31 13 672 46118 8586 77% 26 487126 1064 17%
c p 163.67 1346 31 13 672 50008 13726 75% 25 487126 1064 17%
c - 167.50 1346 30 14 672 53207 9183 75% 25 487126 1064 17%
c s 169.34 1346 30 14 672 54249 9890 75% 25 485282 1064 17%
c v 177.98 1345 30 14 672 54249 9890 75% 25 485276 1064 17%
c w 178.48 1346 30 14 672 54249 9890 75% 25 485276 1064 17%
c t 178.49 1346 30 14 672 54249 9889 75% 25 485276 1064 17%
c e 180.49 1345 30 14 672 54249 9889 75% 25 485262 1056 17%
c s 180.71 1345 30 14 672 54249 9889 75% 25 482581 1056 17%
c O 184.57 1346 30 14 673 55025 10350 75% 25 482581 1056 17%
c 
c  seconds     reductions    redundant   irredundant
c           MB      restarts        trail       variables
c             level     conflicts       glue         remaining
c 
c - 190.03 1346 29 15 678 60802 9634 73% 25 482581 1056 17%
c ] 191.72 1346 29 15 679 63007 11052 73% 25 482581 1056 17%
c { 191.72 1346 38 15 679 63007 11052 64% 25 482581 1056 17%
c B 199.49 1346 37 15 784 66030 13298 64% 25 482581 1056 17%
c - 205.06 1346 35 16 853 68884 10449 65% 24 482581 1056 17%
c p 213.00 1346 32 16 868 75009 17153 65% 23 482581 1056 17%
c - 215.53 1346 31 17 886 77471 11282 65% 22 482581 1056 17%
c W 216.36 1346 31 17 886 78031 11670 65% 22 482581 1056 17%
c - 251.41 1346 33 18 1702 86565 12333 65% 23 482581 1056 17%
c # 264.74 1346 33 18 1945 91032 15625 65% 23 482581 1056 17%
c - 276.87 1346 32 19 2173 96161 13332 65% 23 482581 1056 17%
c p 286.98 1346 30 19 2205 105010 22222 66% 22 482581 1056 17%
c B 287.66 1346 30 19 2205 105033 22237 66% 22 482581 1056 17%
c - 289.78 1346 30 20 2258 106262 13854 66% 22 482581 1056 17%
c } 300.96 1346 30 20 2517 112625 18458 65% 22 482581 1056 17%
c 1 300.96 1346 30 20 2517 112625 18458 65% 22 482581 1056 17%
c 
c --- [ writing output ] -----------------------------------------------------
c 
c writing simplified CNF to DIMACS file 'simp/33.cubes3962.adj.simp1'
c * 300.96 1346 30 20 2517 112625 18458 65% 22 482581 1056 17%
c opening file to write 'simp/33.cubes3962.adj.simp1'
c writing 'p cnf 6160 482581' header
c closing file 'simp/33.cubes3962.adj.simp1'
c after writing 236828073 bytes 225.9 MB
c wrote 482581 clauses in 1.73 seconds process time
c 
c --- [ writing extension ] --------------------------------------------------
c 
c writing extension stack to 'simp/33.cubes3962.adj.ext1'
c opening file to write 'simp/33.cubes3962.adj.ext1'
c closing file 'simp/33.cubes3962.adj.ext1'
c after writing 79627 bytes 0.1 MB
c wrote 3577 witnesses in 0.00 seconds process time
c 
c --- [ result ] -------------------------------------------------------------
c 
s SATISFIABLE
c 
c --- [ run-time profiling ] -------------------------------------------------
c 
c process time taken by individual solving procedures
c (percentage relative to process time for solving)
c 
c       234.28   83.25% search
c       177.50   63.07% unstable
c        52.41   18.62% stable
c        47.13   16.75% simplify
c        19.55    6.95% parse
c        18.33    6.51% vivify
c        17.11    6.08% probe
c         8.24    2.93% elim
c         2.84    1.01% walk
c         1.54    0.55% lucky
c         0.74    0.26% subsume
c         0.44    0.16% ternary
c   =================================
c       281.42   92.97% solve
c 
c last line shows process time for solving
c (percentage relative to total process time)
c 
c --- [ statistics ] ---------------------------------------------------------
c 
c chronological:             20255        17.98 %  of conflicts
c conflicts:                112625       400.21    per second
c decisions:                277750       986.98    per second
c eliminated:                 1134        18.41 %  of all variables
c fixed:                       821        13.33 %  of all variables
c learned:                  110094        97.75 %  per conflict
c learned_lits:           21165934       100.00 %  learned literals
c minimized:                     0         0.00 %  learned literals
c shrunken:               12838091        60.65 %  learned literals
c minishrunken:            1847167         8.73 %  learned literals
c propagations:            9893206         0.04 M  per second
c reduced:                   62258        55.28 %  per conflict
c rephased:                     14      8044.64    interval
c restarts:                   2517        44.75    interval
c stabilizing:                   3        37.30 %  of conflicts
c substituted:                   5         0.08 %  of all variables
c subsumed:                  41017         1.16 %  of all clauses
c strengthened:               4802         0.14 %  of all clauses
c ternary:                    3848         0.60 %  of resolved
c vivified:                     40         0.00 %  of all clauses
c walked:                        3     37541.67    interval
c weakened:                   2756         3.12    average size
c 
c seconds are measured in process time for solving
c 
c --- [ resources ] ----------------------------------------------------------
c 
c total process time since initialization:       302.69    seconds
c total real time since initialization:          303.00    seconds
c maximum resident set size of process:         1864.49    MB
c 
c --- [ shutting down ] ------------------------------------------------------
c 
c exit 10
WARNING! DIMACS header mismatch: wrong number of variables.
============================[ Problem Statistics ]=============================
|                                                                             |
|  Number of variables:          4043                                         |
|  Number of clauses:          482581                                         |
|  Parse time:                   3.12 s                                       |
|  Simplification time:          0.06 s                                       |
|                                                                             |
============================[ Search Statistics ]====================================================
| Conflicts |          ORIGINAL         |          LEARNT          | Num Sols |      SUBGRAPHS      |
|           |    Vars  Clauses Literals |    Limit  Clauses Lit/Cl |          | Canonical Noncanon. |
=====================================================================================================
|       122 |    3951   482603 51092806 |     2000      122     84 |        0 |        22        22 |
|       293 |    3951   482624 51093500 |     2000      293    101 |        0 |        50        43 |
|       533 |    3951   482639 51094028 |     2000      533    111 |        0 |        58        58 |
|      1265 |    3951   483034 51099673 |     2000     1265     79 |        0 |       102       453 |
|      1806 |    3951   483069 51100492 |     2000     1806     81 |        0 |       112       488 |
|      2905 |    3951   483409 51107347 |     3601     1906     49 |        0 |       157       828 |
|      4193 |    3951   483558 51110268 |     3601     3194     70 |        0 |       200       977 |
|      5941 |    3951   483598 51111888 |     5005     3146     57 |        0 |       244      1017 |
|      8744 |    3951   483839 51117486 |     6309     3453     44 |        0 |       327      1258 |
|     14026 |    3951   485277 51145295 |     7558     5584     64 |        0 |       600      2696 |
|     20233 |    3951   485718 51152477 |     8784     8017     69 |        0 |       701      3137 |
|     29732 |    3951   486568 51170582 |    11202     8134     53 |        0 |       924      3987 |
|     45656 |    3951   489518 51223734 |    13601    12257     60 |        0 |      1451      6937 |
|     65499 |    3951   489900 51231305 |    17216     9915     35 |        0 |      1628      7319 |
|     95206 |    3951   490415 51243533 |    20817    12023     37 |        0 |      1809      7834 |
|    139750 |    3951   491170 51262932 |    24418    23568     70 |        0 |      2091      8589 |
|    206694 |    3951   492430 51287340 |    30411    23505     60 |        0 |      2552      9849 |
|    308301 |    3951   495511 51345643 |    37612    24913     46 |        0 |      3517     12930 |
|    467212 |    3951   506633 51568776 |    46012    39624     62 |        0 |      6894     24052 |
|    693108 |    3951   510846 51659198 |    56817    36925     47 |        0 |      8147     28265 |
|   1033086 |    3951   518299 51818183 |    68827    65913     63 |        0 |      9722     35718 |
|   1549361 |    3951   535786 52223771 |    85624    45985     35 |        0 |     13076     53205 |
|   2334420 |    3951   572663 53046797 |   104819    74239     54 |        0 |     19339     90082 |
|   3466357 |    3951   582326 53282059 |   127616   107973     68 |        0 |     22464     99745 |
|   5177415 |    3951   609973 53905418 |   156423   122238     66 |       23 |     29508    127369 |
|   7762691 |    3951   670133 55185929 |   192417   100508     30 |       31 |     41677    187521 |
|  11623141 |    3951   742908 56978323 |   235623   119764     27 |       39 |     55924    260288 |
|  17427103 |    3951   865358 60075493 |   288430   172933     39 |       44 |     77554    382733 |
|  26022190 |    3951   938176 61995664 |   352030   298620     65 |       48 |    104779    455547 |
|  39101233 |    3951  1233816 69325588 |   432412   259045     40 |       76 |    153018    751159 |
|  58413336 |    3950  1294281 71033533 |   524259   374995     57 |       77 |    191453    888156 |
|  87260326 |    3944  1256414 70280482 |   646036   482762     65 |       89 |    228758    972476 |
=====================================================================================================
Number of solutions   : 103
Canonical subgraphs   : 258287         (6 /sec)
          order  3    : 1              (200000 /sec)
          order  4    : 1              (500000 /sec)
          order  5    : 1              (250000 /sec)
          order  6    : 1              (52632 /sec)
          order  7    : 1              (8696 /sec)
          order  8    : 1              (1004 /sec)
          order  9    : 2              (155 /sec)
          order 10    : 7              (37 /sec)
          order 11    : 38             (12 /sec)
          order 12    : 301            (5 /sec)
          order 13    : 3810           (4 /sec)
          order 14    : 25078          (3 /sec)
          order 15    : 129671         (7 /sec)
          order 16    : 95598          (7 /sec)
          order 17    : 1956           (7 /sec)
          order 18    : 575            (6 /sec)
          order 19    : 377            (6 /sec)
          order 20    : 375            (6 /sec)
          order 21    : 390            (5 /sec)
          order 22    : 103            (1 /sec)
Noncanonical subgraphs: 1034642        (334 /sec)
          order  3    : 0              (-nan /sec)
          order  4    : 0              (-nan /sec)
          order  5    : 0              (-nan /sec)
          order  6    : 0              (-nan /sec)
          order  7    : 0              (-nan /sec)
          order  8    : 0              (-nan /sec)
          order  9    : 0              (-nan /sec)
          order 10    : 0              (-nan /sec)
          order 11    : 0              (-nan /sec)
          order 12    : 0              (-nan /sec)
          order 13    : 8644           (5731 /sec)
          order 14    : 115806         (986 /sec)
          order 15    : 783153         (346 /sec)
          order 16    : 107923         (365 /sec)
          order 17    : 18704          (54 /sec)
          order 18    : 58             (26 /sec)
          order 19    : 40             (15 /sec)
          order 20    : 2              (327 /sec)
          order 21    : 0              (-nan /sec)
Canonicity checking   : 41640.8 s
Noncanonicity checking: 3093.75 s
Total canonicity time : 44734.6 s
database reductions   : 612
restarts              : 134857
conflicts             : 113500265      (679 /sec)
decisions             : 140219845      (0.00 % random) (839 /sec)
propagations          : 6811413388     (40764 /sec)
conflict literals     : 12615952748    (56.90 % deleted)
actual reward         : 0.211778
Memory used           : 1149.00 MB
CPU time              : 167093 s

UNSATISFIABLE
